
Gurobi 6.5.2 (win64) logging started 07/23/16 03:54:14


Gurobi 6.5.2 (win64) logging started 07/23/16 03:54:14

Optimize a model with 24833 rows, 950 columns and 51484 nonzeros
Coefficient statistics:
  Matrix range    [1e+00, 5e+01]
  Objective range [7e+00, 5e+01]
  Bounds range    [1e+00, 1e+00]
  RHS range       [1e+00, 9e+02]
Presolve removed 24666 rows and 33 columns
Presolve time: 0.04s
Presolved: 167 rows, 917 columns, 4185 nonzeros
Variable types: 0 continuous, 917 integer (917 binary)

Root relaxation: objective 8.610000e+02, 319 iterations, 0.00 seconds

    Nodes    |    Current Node    |     Objective Bounds      |     Work
 Expl Unexpl |  Obj  Depth IntInf | Incumbent    BestBd   Gap | It/Node Time

*    0     0               0     861.0000000  861.00000  0.00%     -    0s

Explored 0 nodes (319 simplex iterations) in 0.08 seconds
Thread count was 8 (of 8 available processors)

Optimal solution found (tolerance 1.00e-04)
Best objective 8.610000000000e+02, best bound 8.610000000000e+02, gap 0.0%

Wrote requested result file 'H2\instance29\\Results29SG_Sol4.lp'

